; benchmark generated from python API
(set-info :status unknown)
(declare-datatypes ((RealState 0)) (((RMk1 (rval1 Real)) (RMk2 (rval2 Real)))))
 (assert
 (forall ((|v9:0| Real) )(exists ((|v8:1_st| RealState) (val!755 Real) )(forall ((|v7:2| Real) )(exists ((|v6:3_st| RealState) (val!756 Real) )(forall ((|v5:4| Real) )(exists ((|v4:5_st| RealState) (val!757 Real) )(forall ((|v3:6| Real) )(exists ((|v2:7_st| RealState) (val!758 Real) )(forall ((|v1:8| Real) )(exists ((|v0:9_st| RealState) (val!759 Real) )(let ((?x390 (+ (+ (* 0.0 |v5:4|) (* 5.0 (rval2 |v8:1_st|))) (* 8.0 (rval2 |v8:1_st|)))))
 (let ((?x123 (- 1.0)))
 (let (($x404 (<= (+ (+ (* 14.0 (rval2 |v4:5_st|)) (* (- 15.0) |v9:0|)) (* 13.0 |v9:0|)) ?x123)))
 (let ((?x356 (+ (+ (* (- 8.0) |v1:8|) (* (- 13.0) (rval2 |v4:5_st|))) (* 18.0 (rval2 |v0:9_st|)))))
 (let ((?x294 (+ (+ (* 5.0 (rval2 |v8:1_st|)) (* 15.0 (rval2 |v2:7_st|))) (* 0.0 (rval2 |v8:1_st|)))))
 (let ((?x1035 (- 5.0)))
 (let ((?x218 (+ (+ (* (- 11.0) (rval2 |v4:5_st|)) (* 0.0 (rval2 |v0:9_st|))) (* ?x1035 (rval2 |v2:7_st|)))))
 (let (($x1241 (or (or (<= ?x218 ?x1035) (<= ?x294 4.0)) (and (<= ?x356 10.0) $x404))))
 (let (($x908 (<= (+ (+ (* 5.0 |v7:2|) (* (- 2.0) |v7:2|)) (* 7.0 |v5:4|)) 3.0)))
 (let ((?x94 (- 11.0)))
 (let ((?x359 (+ (+ (* (- 17.0) (rval2 |v2:7_st|)) (* 10.0 (rval2 |v0:9_st|))) (* 15.0 (rval2 |v6:3_st|)))))
 (let ((?x129 (- 2.0)))
 (let ((?x674 (+ (+ (* (- 4.0) |v7:2|) (* 19.0 (rval2 |v0:9_st|))) (* 6.0 (rval2 |v0:9_st|)))))
 (let ((?x789 (rval2 |v0:9_st|)))
 (let ((?x839 (* 0.0 ?x789)))
 (let (($x139 (<= (+ (+ (* (- 13.0) (rval2 |v6:3_st|)) (* (- 17.0) |v9:0|)) ?x839) 14.0)))
 (let (($x212 (<= (+ (+ (* 0.0 |v3:6|) (* 3.0 |v5:4|)) (* (- 8.0) |v3:6|)) 3.0)))
 (let (($x1334 (<= (+ (+ (* (- 4.0) |v1:8|) (* 19.0 |v1:8|)) (* ?x1035 (rval2 |v4:5_st|))) ?x123)))
 (let ((?x132 (- 3.0)))
 (let (($x263 (<= (+ (+ (* 3.0 |v7:2|) (* 9.0 |v1:8|)) (* (- 14.0) (rval2 |v4:5_st|))) ?x132)))
 (let (($x122 (<= (+ (+ (* ?x94 (rval2 |v8:1_st|)) (* 4.0 |v9:0|)) (* (- 4.0) |v7:2|)) 17.0)))
 (let (($x529 (<= (+ (+ (* (- 20.0) ?x789) (* 8.0 |v9:0|)) (* (- 15.0) |v3:6|)) ?x123)))
 (let ((?x809 (+ (+ (* 14.0 |v9:0|) (* (- 4.0) (rval2 |v4:5_st|))) (* 16.0 (rval2 |v4:5_st|)))))
 (let ((?x1376 (- 7.0)))
 (let (($x922 (<= (+ (+ (* 19.0 |v9:0|) (* (- 15.0) (rval2 |v4:5_st|))) (* 20.0 |v7:2|)) 18.0)))
 (let (($x428 (and $x922 (<= (+ (+ (* 7.0 |v3:6|) (* 8.0 ?x789)) (* 12.0 |v1:8|)) ?x1376))))
 (let (($x532 (or (and $x428 (or (<= ?x809 15.0) $x529)) (and (or $x122 $x263) (or $x1334 $x212)))))
 (let (($x1229 (or $x532 (or (and (and $x139 (<= ?x674 ?x129)) (or (<= ?x359 ?x94) $x908)) $x1241))))
 (let (($x945 (not (= |v0:9_st| (RMk1 val!759)))))
 (let (($x729 (not (= |v2:7_st| (RMk1 val!758)))))
 (let (($x655 (not (= |v4:5_st| (RMk1 val!757)))))
 (let (($x501 (not (= |v6:3_st| (RMk1 val!756)))))
 (let (($x699 (not (= |v8:1_st| (RMk1 val!755)))))
 (and $x699 $x501 $x655 $x729 $x945 (or $x1229 (<= ?x390 8.0)))))))))))))))))))))))))))))))))))))
 )
 )
 )
 )
 )
 )
 )
 )
 )
 )
(check-sat)
